(declare-const X String)
; /[^\x20-\x7e\x0d\x0a]{4}/P
(assert (not (str.in_re X (re.++ (str.to_re "/") ((_ re.loop 4 4) (re.union (re.range " " "~") (str.to_re "\u{d}") (str.to_re "\u{a}"))) (str.to_re "/P\u{a}")))))
; ProPOWRSTRPquick\x2Eqsrch\x2EcomReferer\x3A
(assert (str.in_re X (str.to_re "ProPOWRSTRPquick.qsrch.comReferer:\u{a}")))
; User-Agent\x3A\d+PortaURLSSKC\x7croogoo\x7c\.cfgmPOPrtCUSTOMPal
(assert (not (str.in_re X (re.++ (str.to_re "User-Agent:") (re.+ (re.range "0" "9")) (str.to_re "PortaURLSSKC|roogoo|.cfgmPOPrtCUSTOMPal\u{a}")))))
; NSIS_DOWNLOAD.*User-Agent\x3A\s+gpstool\x2eglobaladserver\x2ecom
(assert (not (str.in_re X (re.++ (str.to_re "NSIS_DOWNLOAD") (re.* re.allchar) (str.to_re "User-Agent:") (re.+ (re.union (str.to_re " ") (str.to_re "\u{9}") (str.to_re "\u{a}") (str.to_re "\u{c}") (str.to_re "\u{d}"))) (str.to_re "gpstool.globaladserver.com\u{a}")))))
; (((0[123456789]|10|11|12)([/])(([1][9][0-9][0-9])|([2][0-9][0-9][0-9]))))
(assert (not (str.in_re X (re.++ (str.to_re "\u{a}") (re.union (re.++ (str.to_re "0") (re.union (str.to_re "1") (str.to_re "2") (str.to_re "3") (str.to_re "4") (str.to_re "5") (str.to_re "6") (str.to_re "7") (str.to_re "8") (str.to_re "9"))) (str.to_re "10") (str.to_re "11") (str.to_re "12")) (str.to_re "/") (re.union (re.++ (str.to_re "19") (re.range "0" "9") (re.range "0" "9")) (re.++ (str.to_re "2") (re.range "0" "9") (re.range "0" "9") (re.range "0" "9")))))))
(check-sat)

(exit)
